(declare-const a Real)
(declare-const b Real)
(declare-const c Real)
(assert (< 0 a))
(assert (< 0 b))
(assert (< 0 c))
(assert (= (* a b c) 1))
(assert (not (<= (+ (/ 3 4) (* -1 (pow (+ (pow a 2) (pow b 2) (pow c 2)) 2) (pow (+ (* a (+ 1 b) (+ 1 c)) (* b (+ 1 a) (+ 1 c)) (* c (+ 1 a) (+ 1 b))) -1))) 0)))
(check-sat)
(get-model)
(exit)